0 4355
2401 4233
4802 4141
7203 4068
9604 3976
12005 3901
14406 3839
16807 3811
19208 3785
21609 3755
24010 3728
26411 3708
28812 3684
31213 3663
33614 3660
36015 3647
38416 3643
40817 3639
43218 3626
45619 3622
48020 3605
50421 3591
52822 3589
55223 3588
57624 3577
60025 3570
62426 3567
64827 3547
67228 3546
69629 3545
72030 3536
74431 3530
148862 3523
151263 3521
160867 3519
163268 3514
165669 3513
364952 3509
367353 3489
369754 3482
372155 3477
374556 3476
376957 3475
420175 3473
422576 3472
432180 3470
436982 3469
439383 3465
557032 3462
561834 3461
